Route #1: 41 18 33 52 19 59 38
Route #2: 16 20 25 46 40 11 4 21 6
Route #3: 14 47 23 34 24 2
Route #4: 3 31 28 44 49 53 30 36
Route #5: 35 55 15 39 50 58 1
Route #6: 7 13 8 29
Route #7: 27 17 57 37 26 43
Route #8: 48 22 10 54 5
Route #9: 56 12 32 9 51 42
Route #10: 45

Cost: 1680.0263683019589
